(set-logic SLIA)
(constraint (= (f "938-242-504") "938"))
(constraint (= (f "308-916-545") "308"))
(constraint (= (f "623-599-749") "623"))
(constraint (= (f "981-424-843") "981"))
(constraint (= (f "118-980-214") "118"))
(constraint (= (f "244-655-094") "244"))
(check-synth)
(synth-fun f ((name String)) String ((Start String (ntString)) (ntString String ((Str A) (str.++ ntString A))) (A String ((Str ConstString) (SubStr X P P))) (P Int ((Int ntInt) (Pos X Pattern ntInt Direction))) (Pattern String ((Str ConstString) "ProperCase" "CAPS" "lowercase" "Digits" "Alphabets" "Alphanumeric" "WhiteSpace" "ProperCaseWSpaces" "CAPSWSpaces" "lowercaseSpaces" "AlphabetsWSpaces")) (X String (name)) (ConstString String (name " ")) (Direction Int (0 1)) (ntInt Int (-5 -4 -3 -2 -1 0 1 2 3 4 5))))
